language Essence 1.3

letting bot_end be [24, 223, 192, 193, 17, 123, 130, 359, 367, 208, 324, 286, 345, 114, 312, 209, 358, 224; int(1..18)]
letting bot_start be
        [166, 147, 94, 371, 103, 149, 82, 130, 354, 252, 316, 202, 370, 226, 175, 336, 337, 183; int(1..18)]
letting bots be 18
letting buffer_col be 2
letting buffer_row be 2
letting corridor_size be 1
letting n_shelves_col be 3
letting n_shelves_row be 13
letting shelf_col_size be 2
letting shelf_row_size be 1
